
Gurobi 11.0.3 (linux64) logging started Mon 18 Nov 2024 07:50:08 PM CST

Set parameter LogFile to value "/home/dlcole3/graph_abstraction/hierarchical_graphs/git_storage/CS1/HP_low_reserves/gurobi_logs/serial/logfile_ST5_2.log"

Gurobi 11.0.3 (linux64) logging started Mon 18 Nov 2024 07:51:12 PM CST

Set parameter LogFile to value "/home/dlcole3/graph_abstraction/hierarchical_graphs/git_storage/CS1/HP_low_reserves/gurobi_logs/serial/logfile_ST5_2.log"
Gurobi Optimizer version 11.0.3 build v11.0.3rc0 (linux64 - "Ubuntu 18.04.3 LTS")

CPU model: Intel(R) Xeon(R) CPU E5-2698 v4 @ 2.20GHz, instruction set [SSE2|AVX|AVX2]
Thread count: 40 physical cores, 80 logical processors, using up to 20 threads

Optimize a model with 29168 rows, 50688 columns and 136175 nonzeros
Model fingerprint: 0x2571242e
Variable types: 46944 continuous, 3744 integer (3744 binary)
Coefficient statistics:
  Matrix range     [6e-01, 2e+04]
  Objective range  [2e+00, 2e+04]
  Bounds range     [5e-02, 2e+05]
  RHS range        [5e-02, 7e+03]
Presolve removed 14495 rows and 38941 columns
Presolve time: 0.35s
Presolved: 14673 rows, 11747 columns, 62729 nonzeros
Variable types: 8731 continuous, 3016 integer (3016 binary)
Found heuristic solution: objective 172220.43091
Found heuristic solution: objective 163665.43102
Found heuristic solution: objective 135452.39050

Root relaxation: objective 2.789549e+04, 7573 iterations, 0.28 seconds (0.19 work units)

    Nodes    |    Current Node    |     Objective Bounds      |     Work
 Expl Unexpl |  Obj  Depth IntInf | Incumbent    BestBd   Gap | It/Node Time

     0     0 27895.4875    0    5 135452.390 27895.4875  79.4%     -    1s
H    0     0                    135452.39048 27895.4875  79.4%     -    1s
H    0     0                    28071.141700 27895.4875  0.63%     -    1s
     0     0 27895.4875    0    5 28071.1417 27895.4875  0.63%     -    1s
     0     0 27895.4875    0    1 28071.1417 27895.4875  0.63%     -    1s
     0     0 27895.4875    0    1 28071.1417 27895.4875  0.63%     -    2s
     0     2 27895.4875    0    1 28071.1417 27895.4875  0.63%     -    2s
H   96    11                    27968.408464 27938.9760  0.11%   1.9    2s

Explored 104 nodes (13033 simplex iterations) in 2.61 seconds (1.55 work units)
Thread count was 20 (of 80 available processors)

Solution count 5: 27968.4 28071.1 135452 ... 172220

Optimal solution found (tolerance 3.00e-03)
Best objective 2.796840846466e+04, best bound 2.793900090323e+04, gap 0.1051%

User-callback calls 1682, time in user-callback 0.00 sec
